50

100 10 300
99 46 299
98 38 296
97 23 297
94 46 284
93 19 290
91 4 275
89 11 274
89 31 289
89 28 297
85 11 298
85 29 265
84 23 258
83 18 264
81 38 292
81 7 250
78 37 284
73 19 238
73 18 295
73 10 278
73 35 299
70 33 251
69 22 269
68 34 246
64 16 267
64 17 264
63 24 246
59 4 294
54 15 267
49 20 208
48 16 232
45 10 233
45 7 167
43 17 133
42 12 147
41 3 131
39 20 293
37 19 226
37 9 299
36 14 206
32 3 277
30 12 170
26 11 279
26 10 228
25 4 153
24 8 147
24 12 102
23 4 133
21 3 161
21 7 297
